87 79 27 48 36 19 17 26 60 92 38 63 67 17 71 76 76 79 20 82 65 60 53 16 49 94 94 20 76 17 39 98 95 37 83 96 96 29 24 56 57 75 93 17 78 80 27 77 55 20 
51 80 92 80 76 23 33 78 88 25 80 50 50 36 75 60 26 84 38 26 23 68 36 80 78 64 13 45 19 72 69 26 19 94 67 31 62 10 98 39 10 43 23 95 23 52 12 21 68 42 
14 70 46 25 10 85 45 18 55 41 85 57 44 89 68 64 85 80 65 78 38 40 94 27 73 15 89 29 20 48 42 30 40 21 73 47 75 58 42 60 32 30 77 95 73 84 17 48 17 15 
33 21 40 16 85 78 76 47 81 77 95 93 46 72 95 87 18 77 33 13 41 18 10 41 20 67 12 69 52 55 35 25 75 54 48 72 80 58 69 61 70 82 49 63 65 38 94 43 36 76 
1380.00
